17	4
27	34	25	26	
0	0	0	0	0	3	2	3	4	
2	3	2	6	6	3	5	6	10	
10	3	8	10	4	3	6	7	8	
8	10	9	7	7	3	5	14	15	
3	8	1	10	1	3	7	12	17	
250	6	8	0	0	3	9	11	12	
200	3	7	10	2	3	17	17	17	
150	4	0	4	0	3	9	17	17	
250	0	6	2	10	3	14	16	17	
225	4	4	0	0	2	13	17	
100	9	3	5	7	3	13	15	17	
225	0	9	6	0	3	16	17	17	
7	7	9	6	0	2	17	17	
5	4	7	8	0	3	17	17	17	
2	9	10	6	6	3	16	17	17	
8	0	4	1	0	3	17	17	17	
0	0	0	0	0	0	
